unsat
(define-fun str_invariant ((top.usr.x Bool) (top.usr.OK Bool) (top.res.init_flag Bool) (top.res.abs_0 Bool) (top.res.abs_1 Bool) (top.res.inst_5 Bool) (top.res.inst_4 Int) (top.res.inst_3 Bool) (top.res.inst_2 Bool) (top.res.inst_1 Bool) (top.res.inst_0 Bool)) Bool (and top.usr.OK (not (>= top.res.inst_4 6))))
0.11user 0.01system 0:00.13elapsed 99%CPU (0avgtext+0avgdata 27536maxresident)k
0inputs+8outputs (0major+1599minor)pagefaults 0swaps
